6 2 60
15 16 44
13 20 44
3 4 65
29 26 70
23 13 37
2 6 68
17 15 43
19 20 66
5 0 31
16 14 65
21 12 45
8 3 42
29 17 65
21 19 57
9 1 41
18 27 32
23 25 36
1 7 52
16 17 47
25 22 39
4 6 59
17 28 65
20 24 30
5 2 49
18 15 67
22 19 50
10 6 61
17 14 52
21 18 46